3 3 2
25 2 66 1 20 2 30 0 9 1 72 2 68 1 29 0 80 2 55 0 11 2 13 1 34 0 1 2 12 1 80 0 76 2 58 1 40 2 16 1 71 0 36 2 71 1 77 0 61 2 49 
25 1 75 0 12 1 94 2 39 1 41 0 93 1 95 0 74 2 79 0 44 2 29 1 60 0 81 2 84 0 34 2 45 0 70 2 78 0 43 2 21 1 51 0 7 1 0 2 81 1 78 
25 0 49 2 23 0 29 1 6 0 1 1 44 0 0 2 28 1 19 2 29 0 71 1 48 2 14 1 12 2 41 1 52 0 43 1 12 2 85 0 93 1 18 0 34 1 2 2 30 0 91 

-------------
